NAME: cuum190.tsp
TYPE: TSP
COMMENT: User-generated TSP file
DIMENSION: 190
EDGE_WEIGHT_TYPE: EUC_2D
NODE_COORD_SECTION
1 47.0 85.0
2 145.0 31.0
3 57.0 47.0
4 47.0 119.0
5 176.0 130.0
6 48.0 29.0
7 72.0 188.0
8 109.0 167.0
9 38.0 120.0
10 91.0 119.0
11 129.0 27.0
12 157.0 173.0
13 4.0 121.0
14 143.0 29.0
15 180.0 23.0
16 66.0 12.0
17 186.0 128.0
18 94.0 163.0
19 48.0 43.0
20 110.0 155.0
21 138.0 86.0
22 38.0 10.0
23 113.0 176.0
24 102.0 41.0
25 181.0 17.0
26 126.0 145.0
27 182.0 112.0
28 95.0 117.0
29 32.0 11.0
30 85.0 141.0
31 57.0 115.0
32 82.0 135.0
33 184.0 169.0
34 160.0 80.0
35 130.0 178.0
36 90.0 95.0
37 6.0 131.0
38 155.0 61.0
39 69.0 36.0
40 125.0 167.0
41 40.0 11.0
42 63.0 91.0
43 125.0 17.0
44 186.0 94.0
45 50.0 156.0
46 123.0 94.0
47 130.0 150.0
48 50.0 27.0
49 44.0 72.0
50 72.0 5.0
51 87.0 55.0
52 108.0 14.0
53 94.0 6.0
54 157.0 110.0
55 107.0 121.0
56 70.0 33.0
57 179.0 103.0
58 111.0 170.0
59 137.0 182.0
60 158.0 80.0
61 149.0 182.0
62 161.0 41.0
63 80.0 160.0
64 3.0 108.0
65 109.0 94.0
66 66.0 85.0
67 147.0 124.0
68 17.0 85.0
69 41.0 68.0
70 104.0 26.0
71 130.0 100.0
72 126.0 73.0
73 160.0 99.0
74 85.0 24.0
75 74.0 80.0
76 54.0 35.0
77 50.0 189.0
78 89.0 134.0
79 65.0 175.0
80 78.0 58.0
81 81.0 131.0
82 169.0 45.0
83 47.0 38.0
84 142.0 69.0
85 159.0 26.0
86 122.0 68.0
87 152.0 69.0
88 166.0 45.0
89 75.0 99.0
90 3.0 76.0
91 129.0 75.0
92 178.0 23.0
93 12.0 95.0
94 142.0 85.0
95 84.0 108.0
96 109.0 24.0
97 40.0 116.0
98 170.0 182.0
99 168.0 115.0
100 167.0 122.0
101 158.0 82.0
102 6.0 173.0
103 107.0 136.0
104 128.0 129.0
105 149.0 6.0
106 69.0 159.0
107 111.0 7.0
108 23.0 147.0
109 69.0 128.0
110 34.0 190.0
111 85.0 23.0
112 133.0 79.0
113 19.0 147.0
114 88.0 62.0
115 128.0 61.0
116 23.0 5.0
117 64.0 93.0
118 118.0 54.0
119 12.0 56.0
120 35.0 86.0
121 97.0 120.0
122 124.0 99.0
123 10.0 17.0
124 53.0 51.0
125 12.0 37.0
126 184.0 107.0
127 59.0 136.0
128 15.0 177.0
129 10.0 172.0
130 72.0 5.0
131 103.0 1.0
132 173.0 168.0
133 158.0 36.0
134 141.0 68.0
135 177.0 142.0
136 118.0 58.0
137 35.0 177.0
138 170.0 26.0
139 59.0 14.0
140 22.0 93.0
141 166.0 19.0
142 57.0 109.0
143 108.0 151.0
144 16.0 184.0
145 110.0 172.0
146 51.0 175.0
147 161.0 22.0
148 45.0 51.0
149 182.0 115.0
150 14.0 73.0
151 156.0 98.0
152 58.0 3.0
153 147.0 63.0
154 98.0 14.0
155 74.0 172.0
156 102.0 122.0
157 160.0 128.0
158 138.0 143.0
159 66.0 190.0
160 111.0 66.0
161 4.0 80.0
162 62.0 37.0
163 9.0 80.0
164 15.0 12.0
165 23.0 38.0
166 55.0 162.0
167 136.0 105.0
168 5.0 17.0
169 106.0 53.0
170 128.0 44.0
171 15.0 10.0
172 1.0 29.0
173 121.0 140.0
174 169.0 148.0
175 99.0 171.0
176 88.0 53.0
177 96.0 162.0
178 72.0 74.0
179 155.0 27.0
180 115.0 41.0
181 120.0 17.0
182 176.0 184.0
183 164.0 117.0
184 27.0 162.0
185 97.0 190.0
186 75.0 88.0
187 99.0 119.0
188 113.0 49.0
189 92.0 13.0
190 139.0 149.0
EOF





